NAME : karp13
TYPE : TSP
DIMENSION : 13
EDGE_WEIGHT_TYPE : EUC_2D
NODE_COORD_SECTION
1 3 4
2 5 6
3 7 8
4 9 10
5 11 12
6 18718 10500
7 13355 2977
8 8786 6099
9 6242 12200
10 22 5807
11 17490 5792
12 14198 14154
13 13578 10828
EOF